68
1 0 9
2 0 16
2 1 32
3 0 19
3 1 40
3 2 39
4 0 20
4 1 40
4 2 19
4 3 19
5 0 27
5 1 14
5 2 36
5 3 36
5 4 19
6 0 26
6 1 23
6 2 34
6 3 38
6 4 14
6 5 37
7 0 13
7 1 5
7 2 39
7 3 3
7 4 23
7 5 17
7 6 6
8 0 17
8 1 11
8 2 13
8 3 1
8 4 34
8 5 10
8 6 41
8 7 15
9 0 21
9 1 26
9 2 14
9 3 23
9 4 4
9 5 14
9 6 3
9 7 16
9 8 25
10 0 13
10 1 20
10 2 9
10 3 6
10 4 4
10 5 28
10 6 13
10 7 10
10 8 19
10 9 17
11 0 36
11 1 41
11 2 6
11 3 36
11 4 19
11 5 30
11 6 7
11 7 5
11 8 33
11 9 23
11 10 33
12 0 34
12 1 36
12 2 10
12 3 32
12 4 30
12 5 6
12 6 9
12 7 38
12 8 41
12 9 9
12 10 24
12 11 8
13 0 36
13 1 2
13 2 21
13 3 13
13 4 8
13 5 36
13 6 14
13 7 39
13 8 38
13 9 9
13 10 16
13 11 9
13 12 33
14 0 24
14 1 1
14 2 18
14 3 26
14 4 3
14 5 28
14 6 32
14 7 23
14 8 31
14 9 7
14 10 27
14 11 1
14 12 13
14 13 34
15 0 33
15 1 27
15 2 33
15 3 31
15 4 14
15 5 14
15 6 8
15 7 5
15 8 27
15 9 29
15 10 4
15 11 20
15 12 16
15 13 8
15 14 1
16 0 6
16 1 7
16 2 23
16 3 28
16 4 11
16 5 32
16 6 7
16 7 23
16 8 22
16 9 38
16 10 7
16 11 32
16 12 35
16 13 36
16 14 13
16 15 23
17 0 9
17 1 18
17 2 16
17 3 5
17 4 9
17 5 6
17 6 2
17 7 3
17 8 33
17 9 29
17 10 31
17 11 41
17 12 24
17 13 5
17 14 8
17 15 9
17 16 19
18 0 26
18 1 9
18 2 41
18 3 34
18 4 39
18 5 10
18 6 17
18 7 39
18 8 40
18 9 29
18 10 30
18 11 31
18 12 11
18 13 32
18 14 7
18 15 9
18 16 40
18 17 37
19 0 4
19 1 28
19 2 18
19 3 11
19 4 19
19 5 3
19 6 24
19 7 30
19 8 21
19 9 30
19 10 7
19 11 30
19 12 18
19 13 18
19 14 21
19 15 39
19 16 25
19 17 31
19 18 25
20 0 3
20 1 39
20 2 30
20 3 24
20 4 26
20 5 9
20 6 29
20 7 33
20 8 7
20 9 7
20 10 29
20 11 6
20 12 28
20 13 21
20 14 28
20 15 17
20 16 21
20 17 12
20 18 22
20 19 29
21 0 3
21 1 17
21 2 24
21 3 7
21 4 32
21 5 4
21 6 14
21 7 28
21 8 20
21 9 18
21 10 10
21 11 10
21 12 38
21 13 29
21 14 38
21 15 9
21 16 15
21 17 26
21 18 9
21 19 19
21 20 4
22 0 11
22 1 39
22 2 11
22 3 20
22 4 34
22 5 7
22 6 24
22 7 6
22 8 25
22 9 13
22 10 33
22 11 38
22 12 8
22 13 29
22 14 11
22 15 41
22 16 4
22 17 2
22 18 2
22 19 18
22 20 3
22 21 3
23 0 3
23 1 24
23 2 10
23 3 14
23 4 2
23 5 22
23 6 1
23 7 2
23 8 10
23 9 23
23 10 25
23 11 3
23 12 4
23 13 29
23 14 9
23 15 33
23 16 24
23 17 29
23 18 21
23 19 20
23 20 30
23 21 13
23 22 39
24 0 1
24 1 39
24 2 2
24 3 37
24 4 21
24 5 18
24 6 32
24 7 29
24 8 37
24 9 37
24 10 27
24 11 6
24 12 37
24 13 34
24 14 20
24 15 2
24 16 17
24 17 39
24 18 10
24 19 37
24 20 16
24 21 28
24 22 31
24 23 17
25 0 17
25 1 7
25 2 11
25 3 41
25 4 19
25 5 17
25 6 30
25 7 15
25 8 9
25 9 4
25 10 1
25 11 14
25 12 2
25 13 18
25 14 11
25 15 1
25 16 34
25 17 4
25 18 5
25 19 32
25 20 4
25 21 38
25 22 26
25 23 35
25 24 22
26 0 7
26 1 1
26 2 4
26 3 38
26 4 16
26 5 21
26 6 22
26 7 17
26 8 2
26 9 40
26 10 36
26 11 15
26 12 32
26 13 17
26 14 22
26 15 7
26 16 30
26 17 35
26 18 23
26 19 36
26 20 15
26 21 29
26 22 6
26 23 28
26 24 21
26 25 23
27 0 16
27 1 13
27 2 3
27 3 37
27 4 38
27 5 41
27 6 7
27 7 12
27 8 20
27 9 26
27 10 29
27 11 26
27 12 8
27 13 7
27 14 35
27 15 14
27 16 28
27 17 20
27 18 26
27 19 34
27 20 35
27 21 11
27 22 3
27 23 32
27 24 37
27 25 18
27 26 4
28 0 21
28 1 23
28 2 18
28 3 11
28 4 31
28 5 35
28 6 13
28 7 13
28 8 6
28 9 6
28 10 8
28 11 31
28 12 16
28 13 18
28 14 1
28 15 8
28 16 5
28 17 8
28 18 17
28 19 41
28 20 26
28 21 27
28 22 27
28 23 22
28 24 41
28 25 1
28 26 38
28 27 11
29 0 27
29 1 34
29 2 35
29 3 3
29 4 4
29 5 38
29 6 30
29 7 33
29 8 37
29 9 27
29 10 25
29 11 41
29 12 20
29 13 20
29 14 26
29 15 11
29 16 2
29 17 21
29 18 18
29 19 16
29 20 24
29 21 22
29 22 27
29 23 26
29 24 18
29 25 21
29 26 26
29 27 33
29 28 2
30 0 38
30 1 37
30 2 20
30 3 17
30 4 34
30 5 9
30 6 6
30 7 6
30 8 2
30 9 3
30 10 28
30 11 9
30 12 31
30 13 35
30 14 26
30 15 33
30 16 5
30 17 18
30 18 15
30 19 31
30 20 5
30 21 17
30 22 27
30 23 31
30 24 12
30 25 26
30 26 21
30 27 35
30 28 19
30 29 25
31 0 13
31 1 18
31 2 18
31 3 33
31 4 30
31 5 17
31 6 13
31 7 9
31 8 22
31 9 9
31 10 32
31 11 18
31 12 23
31 13 6
31 14 22
31 15 13
31 16 28
31 17 3
31 18 9
31 19 30
31 20 2
31 21 7
31 22 26
31 23 10
31 24 9
31 25 31
31 26 25
31 27 26
31 28 36
31 29 3
31 30 1
32 0 21
32 1 20
32 2 21
32 3 20
32 4 15
32 5 29
32 6 40
32 7 23
32 8 12
32 9 25
32 10 39
32 11 38
32 12 24
32 13 2
32 14 38
32 15 30
32 16 7
32 17 28
32 18 32
32 19 36
32 20 1
32 21 22
32 22 22
32 23 7
32 24 10
32 25 38
32 26 28
32 27 17
32 28 40
32 29 18
32 30 30
32 31 2
33 0 16
33 1 4
33 2 33
33 3 34
33 4 40
33 5 33
33 6 25
33 7 23
33 8 10
33 9 38
33 10 26
33 11 6
33 12 19
33 13 27
33 14 37
33 15 9
33 16 2
33 17 41
33 18 17
33 19 41
33 20 27
33 21 5
33 22 3
33 23 24
33 24 9
33 25 11
33 26 35
33 27 23
33 28 15
33 29 10
33 30 9
33 31 21
33 32 40
34 0 12
34 1 22
34 2 40
34 3 1
34 4 39
34 5 25
34 6 38
34 7 21
34 8 6
34 9 23
34 10 36
34 11 27
34 12 28
34 13 39
34 14 2
34 15 12
34 16 31
34 17 31
34 18 9
34 19 6
34 20 3
34 21 17
34 22 11
34 23 36
34 24 9
34 25 13
34 26 23
34 27 13
34 28 23
34 29 11
34 30 20
34 31 37
34 32 19
34 33 38
35 0 9
35 1 10
35 2 23
35 3 12
35 4 36
35 5 26
35 6 32
35 7 14
35 8 8
35 9 30
35 10 3
35 11 37
35 12 13
35 13 19
35 14 31
35 15 13
35 16 36
35 17 27
35 18 28
35 19 39
35 20 9
35 21 8
35 22 6
35 23 7
35 24 21
35 25 23
35 26 32
35 27 7
35 28 1
35 29 11
35 30 3
35 31 28
35 32 15
35 33 13
35 34 17
36 0 21
36 1 3
36 2 27
36 3 11
36 4 19
36 5 30
36 6 29
36 7 18
36 8 40
36 9 40
36 10 31
36 11 17
36 12 34
36 13 34
36 14 14
36 15 40
36 16 14
36 17 30
36 18 36
36 19 30
36 20 4
36 21 4
36 22 21
36 23 15
36 24 15
36 25 3
36 26 38
36 27 29
36 28 14
36 29 32
36 30 1
36 31 25
36 32 2
36 33 21
36 34 22
36 35 33
37 0 24
37 1 28
37 2 16
37 3 35
37 4 5
37 5 38
37 6 13
37 7 26
37 8 22
37 9 15
37 10 34
37 11 30
37 12 33
37 13 21
37 14 29
37 15 37
37 16 25
37 17 18
37 18 21
37 19 32
37 20 29
37 21 14
37 22 38
37 23 32
37 24 29
37 25 8
37 26 36
37 27 14
37 28 38
37 29 21
37 30 20
37 31 10
37 32 41
37 33 22
37 34 36
37 35 32
37 36 18
38 0 31
38 1 30
38 2 30
38 3 26
38 4 6
38 5 22
38 6 17
38 7 24
38 8 18
38 9 41
38 10 29
38 11 26
38 12 38
38 13 19
38 14 12
38 15 37
38 16 12
38 17 41
38 18 28
38 19 11
38 20 28
38 21 15
38 22 39
38 23 39
38 24 23
38 25 21
38 26 1
38 27 41
38 28 5
38 29 35
38 30 3
38 31 25
38 32 29
38 33 16
38 34 11
38 35 31
38 36 5
38 37 7
39 0 39
39 1 15
39 2 22
39 3 40
39 4 8
39 5 29
39 6 11
39 7 40
39 8 40
39 9 39
39 10 39
39 11 33
39 12 20
39 13 25
39 14 22
39 15 19
39 16 33
39 17 2
39 18 8
39 19 28
39 20 4
39 21 14
39 22 19
39 23 4
39 24 31
39 25 14
39 26 25
39 27 37
39 28 3
39 29 10
39 30 18
39 31 2
39 32 33
39 33 28
39 34 37
39 35 8
39 36 16
39 37 24
39 38 12
40 0 2
40 1 22
40 2 24
40 3 37
40 4 21
40 5 40
40 6 30
40 7 7
40 8 39
40 9 4
40 10 27
40 11 40
40 12 25
40 13 31
40 14 24
40 15 27
40 16 33
40 17 41
40 18 26
40 19 31
40 20 23
40 21 4
40 22 28
40 23 10
40 24 22
40 25 29
40 26 10
40 27 21
40 28 39
40 29 6
40 30 21
40 31 36
40 32 9
40 33 13
40 34 21
40 35 6
40 36 3
40 37 19
40 38 24
40 39 1
41 0 37
41 1 37
41 2 8
41 3 14
41 4 35
41 5 25
41 6 22
41 7 36
41 8 2
41 9 41
41 10 16
41 11 32
41 12 25
41 13 12
41 14 9
41 15 30
41 16 21
41 17 31
41 18 19
41 19 11
41 20 25
41 21 3
41 22 30
41 23 36
41 24 8
41 25 6
41 26 3
41 27 38
41 28 28
41 29 31
41 30 16
41 31 21
41 32 3
41 33 40
41 34 15
41 35 23
41 36 12
41 37 21
41 38 27
41 39 6
41 40 7
42 0 37
42 1 26
42 2 25
42 3 32
42 4 23
42 5 40
42 6 41
42 7 28
42 8 4
42 9 31
42 10 31
42 11 8
42 12 18
42 13 32
42 14 1
42 15 1
42 16 8
42 17 15
42 18 36
42 19 9
42 20 3
42 21 4
42 22 36
42 23 10
42 24 29
42 25 28
42 26 24
42 27 23
42 28 16
42 29 19
42 30 14
42 31 7
42 32 29
42 33 40
42 34 17
42 35 26
42 36 24
42 37 23
42 38 38
42 39 2
42 40 3
42 41 2
43 0 11
43 1 24
43 2 2
43 3 40
43 4 34
43 5 31
43 6 41
43 7 38
43 8 25
43 9 22
43 10 36
43 11 29
43 12 4
43 13 28
43 14 41
43 15 32
43 16 41
43 17 19
43 18 8
43 19 37
43 20 3
43 21 6
43 22 6
43 23 5
43 24 17
43 25 1
43 26 36
43 27 12
43 28 3
43 29 10
43 30 38
43 31 2
43 32 28
43 33 2
43 34 9
43 35 32
43 36 19
43 37 27
43 38 11
43 39 37
43 40 36
43 41 1
43 42 35
44 0 32
44 1 34
44 2 24
44 3 9
44 4 35
44 5 37
44 6 14
44 7 31
44 8 35
44 9 23
44 10 26
44 11 27
44 12 5
44 13 32
44 14 18
44 15 23
44 16 33
44 17 26
44 18 2
44 19 33
44 20 33
44 21 12
44 22 25
44 23 25
44 24 11
44 25 28
44 26 28
44 27 35
44 28 25
44 29 16
44 30 36
44 31 33
44 32 33
44 33 11
44 34 15
44 35 1
44 36 6
44 37 35
44 38 20
44 39 34
44 40 15
44 41 26
44 42 6
44 43 8
45 0 36
45 1 28
45 2 17
45 3 11
45 4 10
45 5 15
45 6 30
45 7 28
45 8 1
45 9 34
45 10 20
45 11 8
45 12 17
45 13 32
45 14 37
45 15 23
45 16 37
45 17 27
45 18 25
45 19 21
45 20 24
45 21 6
45 22 8
45 23 16
45 24 6
45 25 28
45 26 25
45 27 35
45 28 12
45 29 19
45 30 16
45 31 10
45 32 20
45 33 1
45 34 40
45 35 8
45 36 37
45 37 15
45 38 16
45 39 8
45 40 19
45 41 12
45 42 18
45 43 5
45 44 27
46 0 17
46 1 36
46 2 8
46 3 22
46 4 1
46 5 16
46 6 28
46 7 25
46 8 20
46 9 13
46 10 16
46 11 10
46 12 21
46 13 7
46 14 35
46 15 18
46 16 28
46 17 36
46 18 24
46 19 31
46 20 20
46 21 2
46 22 33
46 23 17
46 24 5
46 25 21
46 26 25
46 27 17
46 28 36
46 29 8
46 30 26
46 31 8
46 32 24
46 33 2
46 34 16
46 35 26
46 36 17
46 37 19
46 38 35
46 39 23
46 40 28
46 41 20
46 42 7
46 43 40
46 44 25
46 45 32
47 0 21
47 1 8
47 2 4
47 3 6
47 4 16
47 5 19
47 6 14
47 7 33
47 8 36
47 9 12
47 10 15
47 11 10
47 12 27
47 13 40
47 14 36
47 15 39
47 16 38
47 17 15
47 18 18
47 19 9
47 20 19
47 21 41
47 22 17
47 23 22
47 24 11
47 25 27
47 26 11
47 27 15
47 28 34
47 29 18
47 30 11
47 31 29
47 32 36
47 33 33
47 34 32
47 35 12
47 36 40
47 37 36
47 38 17
47 39 6
47 40 17
47 41 14
47 42 38
47 43 36
47 44 24
47 45 27
47 46 24
48 0 24
48 1 9
48 2 8
48 3 14
48 4 37
48 5 18
48 6 27
48 7 3
48 8 12
48 9 34
48 10 2
48 11 36
48 12 38
48 13 16
48 14 32
48 15 32
48 16 8
48 17 17
48 18 34
48 19 31
48 20 13
48 21 28
48 22 2
48 23 37
48 24 2
48 25 18
48 26 38
48 27 28
48 28 9
48 29 36
48 30 25
48 31 9
48 32 10
48 33 17
48 34 26
48 35 24
48 36 28
48 37 36
48 38 8
48 39 34
48 40 25
48 41 41
48 42 12
48 43 6
48 44 39
48 45 26
48 46 23
48 47 10
49 0 34
49 1 34
49 2 23
49 3 5
49 4 23
49 5 41
49 6 16
49 7 18
49 8 41
49 9 41
49 10 24
49 11 23
49 12 40
49 13 12
49 14 4
49 15 34
49 16 29
49 17 10
49 18 5
49 19 19
49 20 30
49 21 30
49 22 3
49 23 15
49 24 7
49 25 25
49 26 26
49 27 25
49 28 9
49 29 39
49 30 5
49 31 25
49 32 4
49 33 41
49 34 15
49 35 34
49 36 5
49 37 10
49 38 37
49 39 34
49 40 16
49 41 1
49 42 8
49 43 9
49 44 10
49 45 28
49 46 36
49 47 7
49 48 27
50 0 40
50 1 35
50 2 4
50 3 6
50 4 18
50 5 10
50 6 26
50 7 30
50 8 38
50 9 23
50 10 28
50 11 7
50 12 18
50 13 1
50 14 19
50 15 26
50 16 36
50 17 6
50 18 25
50 19 8
50 20 21
50 21 29
50 22 5
50 23 38
50 24 12
50 25 26
50 26 8
50 27 34
50 28 1
50 29 30
50 30 26
50 31 13
50 32 20
50 33 11
50 34 13
50 35 15
50 36 25
50 37 13
50 38 28
50 39 21
50 40 17
50 41 4
50 42 18
50 43 5
50 44 25
50 45 19
50 46 39
50 47 30
50 48 17
50 49 30
51 0 39
51 1 22
51 2 30
51 3 16
51 4 13
51 5 3
51 6 10
51 7 39
51 8 26
51 9 28
51 10 7
51 11 27
51 12 6
51 13 26
51 14 1
51 15 19
51 16 27
51 17 24
51 18 3
51 19 7
51 20 22
51 21 32
51 22 31
51 23 10
51 24 24
51 25 31
51 26 17
51 27 30
51 28 31
51 29 29
51 30 20
51 31 12
51 32 35
51 33 36
51 34 15
51 35 16
51 36 19
51 37 15
51 38 39
51 39 40
51 40 11
51 41 14
51 42 36
51 43 19
51 44 3
51 45 36
51 46 10
51 47 22
51 48 7
51 49 4
51 50 29
52 0 9
52 1 8
52 2 1
52 3 28
52 4 17
52 5 16
52 6 22
52 7 6
52 8 19
52 9 39
52 10 11
52 11 28
52 12 31
52 13 36
52 14 11
52 15 19
52 16 19
52 17 19
52 18 37
52 19 2
52 20 23
52 21 15
52 22 11
52 23 25
52 24 1
52 25 7
52 26 36
52 27 41
52 28 2
52 29 16
52 30 36
52 31 19
52 32 38
52 33 18
52 34 22
52 35 36
52 36 34
52 37 22
52 38 3
52 39 8
52 40 7
52 41 37
52 42 1
52 43 16
52 44 7
52 45 2
52 46 23
52 47 21
52 48 3
52 49 40
52 50 31
52 51 22
53 0 3
53 1 22
53 2 13
53 3 23
53 4 36
53 5 17
53 6 23
53 7 14
53 8 16
53 9 9
53 10 31
53 11 4
53 12 3
53 13 34
53 14 30
53 15 38
53 16 35
53 17 2
53 18 21
53 19 10
53 20 27
53 21 7
53 22 32
53 23 21
53 24 6
53 25 25
53 26 32
53 27 13
53 28 33
53 29 16
53 30 12
53 31 33
53 32 33
53 33 29
53 34 3
53 35 19
53 36 17
53 37 39
53 38 11
53 39 16
53 40 10
53 41 34
53 42 41
53 43 8
53 44 14
53 45 21
53 46 23
53 47 10
53 48 21
53 49 11
53 50 3
53 51 34
53 52 15
54 0 19
54 1 2
54 2 23
54 3 10
54 4 5
54 5 20
54 6 40
54 7 28
54 8 26
54 9 28
54 10 20
54 11 15
54 12 2
54 13 16
54 14 22
54 15 18
54 16 41
54 17 8
54 18 6
54 19 39
54 20 24
54 21 27
54 22 2
54 23 23
54 24 9
54 25 39
54 26 37
54 27 34
54 28 25
54 29 10
54 30 24
54 31 31
54 32 20
54 33 14
54 34 17
54 35 16
54 36 11
54 37 12
54 38 31
54 39 30
54 40 9
54 41 8
54 42 13
54 43 1
54 44 31
54 45 25
54 46 18
54 47 20
54 48 31
54 49 34
54 50 25
54 51 35
54 52 38
54 53 37
55 0 25
55 1 9
55 2 5
55 3 9
55 4 22
55 5 11
55 6 25
55 7 15
55 8 35
55 9 34
55 10 37
55 11 28
55 12 12
55 13 12
55 14 30
55 15 6
55 16 37
55 17 9
55 18 39
55 19 30
55 20 5
55 21 9
55 22 6
55 23 6
55 24 1
55 25 13
55 26 11
55 27 12
55 28 21
55 29 36
55 30 13
55 31 24
55 32 12
55 33 33
55 34 31
55 35 16
55 36 16
55 37 2
55 38 31
55 39 40
55 40 33
55 41 17
55 42 8
55 43 39
55 44 27
55 45 35
55 46 7
55 47 33
55 48 32
55 49 8
55 50 2
55 51 5
55 52 29
55 53 38
55 54 15
56 0 31
56 1 17
56 2 10
56 3 18
56 4 34
56 5 10
56 6 30
56 7 4
56 8 21
56 9 39
56 10 9
56 11 37
56 12 28
56 13 2
56 14 30
56 15 18
56 16 8
56 17 10
56 18 27
56 19 23
56 20 11
56 21 4
56 22 22
56 23 4
56 24 10
56 25 20
56 26 35
56 27 36
56 28 24
56 29 30
56 30 1
56 31 20
56 32 41
56 33 35
56 34 22
56 35 33
56 36 5
56 37 33
56 38 19
56 39 16
56 40 38
56 41 33
56 42 10
56 43 22
56 44 40
56 45 18
56 46 17
56 47 31
56 48 7
56 49 20
56 50 15
56 51 37
56 52 21
56 53 12
56 54 32
56 55 32
57 0 1
57 1 2
57 2 36
57 3 40
57 4 6
57 5 23
57 6 32
57 7 9
57 8 29
57 9 22
57 10 38
57 11 21
57 12 30
57 13 31
57 14 34
57 15 5
57 16 33
57 17 11
57 18 37
57 19 30
57 20 1
57 21 29
57 22 12
57 23 25
57 24 18
57 25 17
57 26 19
57 27 25
57 28 23
57 29 33
57 30 19
57 31 8
57 32 32
57 33 1
57 34 38
57 35 37
57 36 41
57 37 15
57 38 6
57 39 41
57 40 10
57 41 26
57 42 36
57 43 11
57 44 23
57 45 39
57 46 25
57 47 30
57 48 19
57 49 39
57 50 35
57 51 20
57 52 1
57 53 6
57 54 41
57 55 17
57 56 16
58 0 8
58 1 14
58 2 25
58 3 37
58 4 6
58 5 9
58 6 33
58 7 19
58 8 30
58 9 2
58 10 4
58 11 39
58 12 34
58 13 12
58 14 33
58 15 4
58 16 5
58 17 4
58 18 5
58 19 8
58 20 28
58 21 8
58 22 11
58 23 30
58 24 18
58 25 33
58 26 29
58 27 41
58 28 3
58 29 3
58 30 6
58 31 24
58 32 12
58 33 16
58 34 5
58 35 33
58 36 20
58 37 38
58 38 27
58 39 40
58 40 36
58 41 40
58 42 38
58 43 32
58 44 5
58 45 37
58 46 41
58 47 4
58 48 27
58 49 36
58 50 20
58 51 11
58 52 16
58 53 33
58 54 7
58 55 23
58 56 15
58 57 39
59 0 6
59 1 7
59 2 33
59 3 9
59 4 4
59 5 12
59 6 17
59 7 7
59 8 28
59 9 39
59 10 32
59 11 3
59 12 4
59 13 15
59 14 26
59 15 28
59 16 18
59 17 30
59 18 35
59 19 27
59 20 15
59 21 39
59 22 26
59 23 23
59 24 40
59 25 41
59 26 26
59 27 41
59 28 9
59 29 10
59 30 7
59 31 13
59 32 9
59 33 13
59 34 17
59 35 37
59 36 41
59 37 32
59 38 10
59 39 4
59 40 40
59 41 26
59 42 20
59 43 7
59 44 32
59 45 15
59 46 20
59 47 27
59 48 17
59 49 34
59 50 36
59 51 24
59 52 40
59 53 25
59 54 38
59 55 37
59 56 15
59 57 21
59 58 1
60 0 4
60 1 19
60 2 2
60 3 3
60 4 10
60 5 37
60 6 13
60 7 34
60 8 25
60 9 30
60 10 31
60 11 24
60 12 27
60 13 34
60 14 16
60 15 24
60 16 5
60 17 26
60 18 30
60 19 6
60 20 17
60 21 4
60 22 12
60 23 15
60 24 21
60 25 2
60 26 26
60 27 36
60 28 20
60 29 18
60 30 9
60 31 6
60 32 21
60 33 2
60 34 14
60 35 41
60 36 30
60 37 32
60 38 16
60 39 24
60 40 14
60 41 12
60 42 31
60 43 3
60 44 36
60 45 41
60 46 8
60 47 18
60 48 30
60 49 24
60 50 28
60 51 17
60 52 32
60 53 12
60 54 3
60 55 20
60 56 19
60 57 35
60 58 30
60 59 7
61 0 4
61 1 38
61 2 12
61 3 15
61 4 8
61 5 11
61 6 11
61 7 17
61 8 37
61 9 33
61 10 29
61 11 34
61 12 39
61 13 31
61 14 27
61 15 7
61 16 28
61 17 7
61 18 39
61 19 28
61 20 40
61 21 26
61 22 12
61 23 8
61 24 20
61 25 4
61 26 1
61 27 21
61 28 1
61 29 28
61 30 38
61 31 31
61 32 9
61 33 18
61 34 2
61 35 35
61 36 2
61 37 12
61 38 40
61 39 13
61 40 14
61 41 12
61 42 22
61 43 5
61 44 27
61 45 4
61 46 38
61 47 2
61 48 17
61 49 33
61 50 41
61 51 9
61 52 22
61 53 29
61 54 38
61 55 11
61 56 15
61 57 40
61 58 21
61 59 26
61 60 32
62 0 30
62 1 11
62 2 31
62 3 15
62 4 14
62 5 13
62 6 16
62 7 15
62 8 10
62 9 3
62 10 3
62 11 21
62 12 29
62 13 38
62 14 19
62 15 12
62 16 8
62 17 6
62 18 21
62 19 6
62 20 5
62 21 12
62 22 40
62 23 4
62 24 20
62 25 24
62 26 13
62 27 36
62 28 21
62 29 32
62 30 34
62 31 31
62 32 40
62 33 40
62 34 17
62 35 21
62 36 24
62 37 37
62 38 15
62 39 4
62 40 37
62 41 5
62 42 14
62 43 9
62 44 31
62 45 35
62 46 7
62 47 36
62 48 25
62 49 13
62 50 37
62 51 2
62 52 38
62 53 1
62 54 40
62 55 34
62 56 20
62 57 15
62 58 31
62 59 22
62 60 16
62 61 12
63 0 38
63 1 30
63 2 4
63 3 39
63 4 36
63 5 18
63 6 34
63 7 39
63 8 25
63 9 20
63 10 36
63 11 35
63 12 2
63 13 41
63 14 6
63 15 34
63 16 27
63 17 36
63 18 26
63 19 15
63 20 40
63 21 39
63 22 22
63 23 39
63 24 5
63 25 32
63 26 31
63 27 35
63 28 26
63 29 8
63 30 13
63 31 5
63 32 11
63 33 33
63 34 17
63 35 11
63 36 9
63 37 12
63 38 3
63 39 15
63 40 14
63 41 9
63 42 11
63 43 31
63 44 5
63 45 19
63 46 21
63 47 9
63 48 22
63 49 30
63 50 2
63 51 22
63 52 34
63 53 25
63 54 29
63 55 31
63 56 7
63 57 10
63 58 38
63 59 21
63 60 26
63 61 25
63 62 37
64 0 21
64 1 36
64 2 23
64 3 30
64 4 16
64 5 13
64 6 33
64 7 31
64 8 11
64 9 2
64 10 1
64 11 28
64 12 17
64 13 26
64 14 32
64 15 17
64 16 27
64 17 16
64 18 6
64 19 7
64 20 29
64 21 34
64 22 5
64 23 23
64 24 20
64 25 23
64 26 8
64 27 5
64 28 5
64 29 36
64 30 29
64 31 23
64 32 3
64 33 6
64 34 29
64 35 13
64 36 30
64 37 30
64 38 35
64 39 27
64 40 11
64 41 17
64 42 1
64 43 7
64 44 37
64 45 22
64 46 1
64 47 5
64 48 17
64 49 29
64 50 26
64 51 27
64 52 36
64 53 19
64 54 18
64 55 17
64 56 41
64 57 19
64 58 30
64 59 31
64 60 6
64 61 34
64 62 3
64 63 17
65 0 16
65 1 36
65 2 16
65 3 29
65 4 41
65 5 26
65 6 31
65 7 27
65 8 1
65 9 10
65 10 4
65 11 1
65 12 7
65 13 23
65 14 26
65 15 23
65 16 37
65 17 33
65 18 33
65 19 20
65 20 25
65 21 13
65 22 26
65 23 31
65 24 15
65 25 22
65 26 15
65 27 22
65 28 7
65 29 11
65 30 13
65 31 9
65 32 11
65 33 7
65 34 22
65 35 30
65 36 26
65 37 30
65 38 30
65 39 33
65 40 24
65 41 12
65 42 12
65 43 34
65 44 21
65 45 11
65 46 32
65 47 13
65 48 39
65 49 31
65 50 33
65 51 33
65 52 12
65 53 38
65 54 19
65 55 5
65 56 6
65 57 36
65 58 23
65 59 13
65 60 12
65 61 9
65 62 22
65 63 12
65 64 10
66 0 10
66 1 15
66 2 14
66 3 7
66 4 4
66 5 14
66 6 4
66 7 30
66 8 11
66 9 14
66 10 10
66 11 40
66 12 33
66 13 32
66 14 16
66 15 16
66 16 9
66 17 31
66 18 34
66 19 28
66 20 28
66 21 23
66 22 2
66 23 40
66 24 40
66 25 5
66 26 2
66 27 21
66 28 30
66 29 26
66 30 14
66 31 37
66 32 19
66 33 31
66 34 23
66 35 27
66 36 7
66 37 32
66 38 21
66 39 20
66 40 28
66 41 36
66 42 39
66 43 26
66 44 37
66 45 21
66 46 7
66 47 9
66 48 18
66 49 5
66 50 34
66 51 10
66 52 32
66 53 4
66 54 34
66 55 37
66 56 25
66 57 18
66 58 27
66 59 9
66 60 37
66 61 33
66 62 17
66 63 17
66 64 6
66 65 25
67 0 14
67 1 4
67 2 26
67 3 17
67 4 33
67 5 19
67 6 31
67 7 1
67 8 23
67 9 8
67 10 29
67 11 34
67 12 15
67 13 11
67 14 3
67 15 6
67 16 39
67 17 26
67 18 3
67 19 40
67 20 28
67 21 29
67 22 28
67 23 6
67 24 39
67 25 19
67 26 29
67 27 38
67 28 35
67 29 31
67 30 22
67 31 14
67 32 22
67 33 34
67 34 11
67 35 4
67 36 18
67 37 14
67 38 13
67 39 29
67 40 23
67 41 9
67 42 33
67 43 38
67 44 38
67 45 17
67 46 6
67 47 9
67 48 7
67 49 40
67 50 1
67 51 14
67 52 15
67 53 20
67 54 8
67 55 14
67 56 21
67 57 19
67 58 40
67 59 35
67 60 5
67 61 12
67 62 27
67 63 8
67 64 28
67 65 37
67 66 38
